c FILE /home/rafael/Documents/HappySet/MIHS/inputs/happygen/output/graph_scale_free_k3_p0.5_v100_20241127_083817.txt
c SOURCE This is a scale-free graph formed for the happy graph colouring problem.
c DESCRIPTION It was generated using the problem generator of Rhyd Lewis
c
c GRAPH STATS
c Seed                             = -649125613
c Number of Nodes                  = 100
c Number of colours k              = 3
c Number of pre-assignments        = 50
c Number of links per new node     = 5
c Density                          = 0.0979798
c 
c The degrees of nodes 1 to 100, respectively, are as follows 
c [36, 32, 30, 29, 25, 25, 24, 23, 21, 20, 20, 19, 18, 18, 17, 16, 15, 15, 14, 14, 13, 13, 13, 12, 12, 11, 
c  9, 9, 9, 9, 9, 9, 9, 9, 8, 8, 8, 8, 8, 8, 8, 7, 7, 7, 7, 7, 7, 7, 7, 7, 7, 
c  7, 7, 7, 7, 6, 6, 6, 6, 6, 6, 6, 6, 6, 6, 6, 6, 6, 6, 5, 5, 5, 5, 5, 5, 5, 
c  5, 5, 5, 5, 5, 5, 5, 5, 5, 5, 5, 5, 5, 5, 5, 5, 5, 5, 5, 5, 5, 5, 5, 5] 
c  
p edge 100 485 3
e 1 2
e 1 3
e 1 4
e 1 5
e 1 6
e 1 8
e 1 9
e 1 10
e 1 11
e 1 14
e 1 15
e 1 17
e 1 18
e 1 21
e 1 24
e 1 26
e 1 27
e 1 28
e 1 29
e 1 31
e 1 36
e 1 40
e 1 45
e 1 51
e 1 54
e 1 55
e 1 67
e 1 70
e 1 73
e 1 75
e 1 76
e 1 80
e 1 85
e 1 86
e 1 89
e 1 95
e 2 3
e 2 4
e 2 5
e 2 6
e 2 9
e 2 10
e 2 12
e 2 14
e 2 15
e 2 16
e 2 17
e 2 19
e 2 20
e 2 21
e 2 22
e 2 23
e 2 25
e 2 33
e 2 39
e 2 42
e 2 45
e 2 46
e 2 49
e 2 50
e 2 55
e 2 56
e 2 61
e 2 84
e 2 90
e 2 94
e 2 97
e 3 4
e 3 5
e 3 6
e 3 7
e 3 8
e 3 9
e 3 10
e 3 14
e 3 21
e 3 22
e 3 23
e 3 25
e 3 31
e 3 32
e 3 34
e 3 36
e 3 37
e 3 41
e 3 42
e 3 46
e 3 47
e 3 49
e 3 52
e 3 58
e 3 63
e 3 69
e 3 84
e 3 91
e 4 8
e 4 9
e 4 10
e 4 13
e 4 14
e 4 15
e 4 16
e 4 19
e 4 23
e 4 24
e 4 32
e 4 38
e 4 43
e 4 46
e 4 48
e 4 57
e 4 59
e 4 60
e 4 62
e 4 64
e 4 71
e 4 76
e 4 79
e 4 83
e 4 87
e 4 90
e 5 7
e 5 8
e 5 9
e 5 10
e 5 11
e 5 12
e 5 13
e 5 19
e 5 21
e 5 22
e 5 27
e 5 29
e 5 30
e 5 42
e 5 43
e 5 45
e 5 53
e 5 71
e 5 72
e 5 77
e 5 81
e 5 100
e 6 10
e 6 17
e 6 18
e 6 26
e 6 30
e 6 34
e 6 35
e 6 38
e 6 43
e 6 44
e 6 45
e 6 55
e 6 56
e 6 58
e 6 62
e 6 65
e 6 68
e 6 70
e 6 78
e 6 81
e 6 92
e 6 94
e 7 8
e 7 12
e 7 13
e 7 14
e 7 20
e 7 21
e 7 24
e 7 26
e 7 27
e 7 31
e 7 37
e 7 41
e 7 51
e 7 56
e 7 63
e 7 64
e 7 66
e 7 73
e 7 82
e 7 85
e 7 86
e 7 95
e 8 10
e 8 12
e 8 13
e 8 15
e 8 17
e 8 18
e 8 23
e 8 28
e 8 29
e 8 32
e 8 35
e 8 38
e 8 47
e 8 54
e 8 59
e 8 60
e 8 68
e 8 78
e 9 10
e 9 11
e 9 21
e 9 23
e 9 40
e 9 42
e 9 43
e 9 53
e 9 74
e 9 80
e 9 88
e 9 90
e 9 91
e 9 92
e 9 93
e 9 97
e 10 11
e 10 13
e 10 17
e 10 22
e 10 33
e 10 36
e 10 44
e 10 51
e 10 60
e 10 71
e 10 73
e 10 79
e 11 13
e 11 15
e 11 19
e 11 24
e 11 25
e 11 27
e 11 29
e 11 38
e 11 56
e 11 60
e 11 67
e 11 75
e 11 81
e 11 85
e 11 88
e 11 94
e 12 18
e 12 21
e 12 30
e 12 32
e 12 39
e 12 47
e 12 49
e 12 50
e 12 57
e 12 64
e 12 71
e 12 72
e 12 74
e 12 76
e 12 86
e 13 20
e 13 21
e 13 29
e 13 33
e 13 35
e 13 40
e 13 44
e 13 61
e 13 70
e 13 77
e 13 79
e 13 93
e 14 16
e 14 34
e 14 37
e 14 42
e 14 47
e 14 52
e 14 58
e 14 62
e 14 66
e 14 72
e 14 73
e 14 84
e 14 86
e 15 17
e 15 20
e 15 24
e 15 26
e 15 27
e 15 28
e 15 44
e 15 53
e 15 64
e 15 67
e 15 70
e 15 88
e 16 19
e 16 24
e 16 25
e 16 52
e 16 55
e 16 56
e 16 65
e 16 72
e 16 74
e 16 88
e 16 89
e 16 90
e 16 98
e 17 20
e 17 38
e 17 46
e 17 57
e 17 62
e 17 74
e 17 95
e 17 96
e 17 98
e 18 19
e 18 30
e 18 31
e 18 36
e 18 46
e 18 48
e 18 68
e 18 83
e 18 84
e 18 96
e 18 100
e 19 21
e 19 48
e 19 60
e 19 66
e 19 68
e 19 69
e 19 81
e 19 82
e 20 28
e 20 34
e 20 40
e 20 41
e 20 43
e 20 45
e 20 65
e 20 75
e 20 93
e 21 22
e 21 50
e 21 63
e 21 78
e 22 25
e 22 26
e 22 35
e 22 40
e 22 41
e 22 84
e 22 88
e 22 94
e 23 37
e 23 51
e 23 54
e 23 61
e 23 75
e 23 81
e 23 83
e 23 87
e 24 33
e 24 34
e 24 44
e 24 50
e 24 82
e 24 99
e 25 58
e 25 64
e 25 70
e 25 73
e 25 77
e 25 80
e 25 96
e 26 30
e 26 39
e 26 76
e 26 79
e 26 83
e 26 100
e 27 35
e 27 58
e 27 63
e 27 94
e 28 36
e 28 39
e 28 42
e 28 52
e 28 54
e 29 31
e 29 66
e 29 87
e 29 91
e 30 48
e 30 95
e 30 97
e 30 98
e 31 48
e 31 49
e 31 71
e 31 92
e 32 35
e 32 50
e 32 66
e 32 76
e 32 99
e 33 44
e 33 59
e 33 79
e 33 82
e 33 87
e 34 67
e 34 78
e 34 82
e 34 93
e 35 37
e 35 62
e 36 47
e 36 49
e 36 96
e 37 39
e 37 51
e 37 85
e 38 41
e 38 80
e 38 87
e 39 61
e 39 92
e 39 97
e 40 65
e 40 90
e 40 91
e 41 61
e 41 65
e 41 97
e 42 78
e 43 57
e 43 68
e 44 59
e 45 72
e 45 92
e 46 63
e 46 99
e 47 59
e 47 83
e 48 52
e 48 75
e 49 53
e 49 89
e 50 54
e 50 89
e 51 77
e 51 85
e 52 55
e 52 100
e 53 58
e 53 96
e 53 99
e 54 91
e 54 95
e 55 67
e 55 69
e 56 57
e 57 74
e 59 89
e 60 77
e 61 98
e 62 80
e 63 86
e 64 69
e 65 93
e 66 99
e 67 100
e 68 69
e 69 98
n 10 2
n 11 2
n 15 2
n 25 2
n 30 1
n 33 2
n 35 1
n 39 1
n 40 3
n 41 1
n 42 3
n 43 1
n 44 2
n 46 2
n 47 1
n 49 1
n 50 1
n 51 2
n 52 2
n 54 1
n 55 2
n 57 1
n 58 2
n 60 2
n 61 1
n 63 2
n 64 2
n 66 3
n 67 2
n 69 2
n 70 2
n 72 1
n 74 1
n 75 2
n 76 2
n 78 3
n 79 2
n 80 2
n 81 2
n 82 2
n 85 2
n 89 1
n 90 3
n 92 1
n 93 1
n 94 2
n 95 1
n 96 2
n 97 1
n 100 2
